
n_res = 6;
rcap = [74, 71, 80, 78, 1675, 1654];
rtype = [1, 1, 1, 1, 2, 2];
n_tasks = 100;
modes =  [{1, 2, 3, 4, 5, 6}, {7, 8, 9, 10, 11, 12}, {13, 14, 15, 16, 17, 18}, {19, 20, 21, 22, 23, 24}, {25, 26, 27, 28, 29, 30}, {31, 32, 33, 34, 35, 36}, {37, 38, 39, 40, 41, 42}, {43, 44, 45, 46, 47, 48}, {49, 50, 51, 52, 53, 54}, {55, 56, 57, 58, 59, 60}, {61, 62, 63, 64, 65, 66}, {67, 68, 69, 70, 71, 72}, {73, 74, 75, 76, 77, 78}, {79, 80, 81, 82, 83, 84}, {85, 86, 87, 88, 89, 90}, {91, 92, 93, 94, 95, 96}, {97, 98, 99, 100, 101, 102}, {103, 104, 105, 106, 107, 108}, {109, 110, 111, 112, 113, 114}, {115, 116, 117, 118, 119, 120}, {121, 122, 123, 124, 125, 126}, {127, 128, 129, 130, 131, 132}, {133, 134, 135, 136, 137, 138}, {139, 140, 141, 142, 143, 144}, {145, 146, 147, 148, 149, 150}, {151, 152, 153, 154, 155, 156}, {157, 158, 159, 160, 161, 162}, {163, 164, 165, 166, 167, 168}, {169, 170, 171, 172, 173, 174}, {175, 176, 177, 178, 179, 180}, {181, 182, 183, 184, 185, 186}, {187, 188, 189, 190, 191, 192}, {193, 194, 195, 196, 197, 198}, {199, 200, 201, 202, 203, 204}, {205, 206, 207, 208, 209, 210}, {211, 212, 213, 214, 215, 216}, {217, 218, 219, 220, 221, 222}, {223, 224, 225, 226, 227, 228}, {229, 230, 231, 232, 233, 234}, {235, 236, 237, 238, 239, 240}, {241, 242, 243, 244, 245, 246}, {247, 248, 249, 250, 251, 252}, {253, 254, 255, 256, 257, 258}, {259, 260, 261, 262, 263, 264}, {265, 266, 267, 268, 269, 270}, {271, 272, 273, 274, 275, 276}, {277, 278, 279, 280, 281, 282}, {283, 284, 285, 286, 287, 288}, {289, 290, 291, 292, 293, 294}, {295, 296, 297, 298, 299, 300}, {301, 302, 303, 304, 305, 306}, {307, 308, 309, 310, 311, 312}, {313, 314, 315, 316, 317, 318}, {319, 320, 321, 322, 323, 324}, {325, 326, 327, 328, 329, 330}, {331, 332, 333, 334, 335, 336}, {337, 338, 339, 340, 341, 342}, {343, 344, 345, 346, 347, 348}, {349, 350, 351, 352, 353, 354}, {355, 356, 357, 358, 359, 360}, {361, 362, 363, 364, 365, 366}, {367, 368, 369, 370, 371, 372}, {373, 374, 375, 376, 377, 378}, {379, 380, 381, 382, 383, 384}, {385, 386, 387, 388, 389, 390}, {391, 392, 393, 394, 395, 396}, {397, 398, 399, 400, 401, 402}, {403, 404, 405, 406, 407, 408}, {409, 410, 411, 412, 413, 414}, {415, 416, 417, 418, 419, 420}, {421, 422, 423, 424, 425, 426}, {427, 428, 429, 430, 431, 432}, {433, 434, 435, 436, 437, 438}, {439, 440, 441, 442, 443, 444}, {445, 446, 447, 448, 449, 450}, {451, 452, 453, 454, 455, 456}, {457, 458, 459, 460, 461, 462}, {463, 464, 465, 466, 467, 468}, {469, 470, 471, 472, 473, 474}, {475, 476, 477, 478, 479, 480}, {481, 482, 483, 484, 485, 486}, {487, 488, 489, 490, 491, 492}, {493, 494, 495, 496, 497, 498}, {499, 500, 501, 502, 503, 504}, {505, 506, 507, 508, 509, 510}, {511, 512, 513, 514, 515, 516}, {517, 518, 519, 520, 521, 522}, {523, 524, 525, 526, 527, 528}, {529, 530, 531, 532, 533, 534}, {535, 536, 537, 538, 539, 540}, {541, 542, 543, 544, 545, 546}, {547, 548, 549, 550, 551, 552}, {553, 554, 555, 556, 557, 558}, {559, 560, 561, 562, 563, 564}, {565, 566, 567, 568, 569, 570}, {571, 572, 573, 574, 575, 576}, {577, 578, 579, 580, 581, 582}, {583, 584, 585, 586, 587, 588}, {589, 590, 591, 592, 593, 594}, {595, 596, 597, 598, 599, 600}];
succ =  [{100, 98, 96, 70, 66, 59, 57, 56, 53, 52, 45, 40, 39, 22, 21, 17}, {88, 70, 69, 67, 66, 65, 59, 58, 57, 54, 49, 39, 32, 29, 17}, {100, 99, 98, 70, 68, 66, 58, 57, 56, 52, 51, 49, 44, 40, 39, 38, 21}, {61, 58, 57, 56, 55, 54, 53, 51, 49, 47, 45, 40, 38, 18}, {100, 97, 94, 93, 91, 70, 69, 68, 67, 66, 58, 57, 54, 53, 52, 50, 48, 45, 36, 26}, {98, 97, 96, 90, 79, 69, 67, 65, 64, 61, 59, 53, 52, 49, 48, 46, 44, 41, 25}, {99, 97, 95, 88, 69, 66, 65, 64, 63, 58, 54, 51, 48, 46, 44, 38, 32}, {100, 99, 98, 96, 94, 91, 89, 88, 85, 68, 67, 66, 60, 58, 57, 55, 52, 42, 40}, {100, 98, 97, 96, 95, 94, 93, 92, 91, 88, 87, 86, 82, 67, 66, 65, 61, 59, 54, 53, 49, 48, 47, 46, 45}, {95, 94, 93, 91, 89, 87, 86, 82, 79, 70, 66, 63, 60, 59, 58, 57, 54, 53, 50, 49, 48, 46}, {100, 97, 94, 90, 89, 87, 84, 82, 78, 70, 69, 68, 63, 59, 56, 52, 50, 47, 39}, {95, 94, 93, 82, 81, 79, 77, 68, 67, 65, 64, 61, 58, 57, 54, 53, 52, 50, 38}, {98, 95, 94, 93, 91, 88, 87, 86, 85, 82, 80, 77, 76, 68, 67, 64, 63, 62, 60, 58, 57, 51, 49}, {98, 97, 96, 94, 92, 91, 89, 88, 86, 85, 79, 78, 72, 69, 65, 63, 61, 60, 42}, {100, 99, 98, 96, 94, 91, 89, 88, 86, 84, 68, 65, 64, 62, 59, 57, 54, 50, 42}, {98, 97, 92, 89, 88, 87, 86, 66, 47, 42, 39, 36}, {99, 97, 92, 87, 86, 85, 82, 81, 78, 76, 68, 63, 61, 60, 48, 47, 44}, {97, 96, 94, 93, 91, 90, 88, 87, 86, 84, 83, 82, 79, 77, 72, 67, 66, 65, 64, 63, 62, 46}, {99, 96, 95, 93, 89, 87, 82, 80, 78, 69, 67, 66, 64, 63, 61, 54, 49, 47}, {96, 94, 88, 87, 84, 79, 72, 69, 66, 65, 63, 61, 50, 42}, {97, 93, 90, 89, 88, 87, 86, 82, 81, 78, 76, 67, 65, 64, 63, 62, 54, 48}, {92, 91, 87, 83, 81, 79, 78, 77, 76, 73, 69, 67, 64, 62, 60, 54}, {99, 94, 90, 89, 88, 80, 78, 76, 68, 67, 64, 63, 62, 54, 47}, {99, 90, 88, 86, 84, 82, 78, 77, 75, 68, 67, 66, 64, 63, 46}, {95, 92, 88, 83, 82, 80, 68, 63, 62, 58, 43}, {99, 96, 90, 89, 88, 87, 84, 83, 82, 78, 76, 72, 65, 47}, {99, 90, 87, 86, 85, 83, 82, 79, 76, 73, 66, 64, 58, 57}, {98, 97, 95, 92, 90, 88, 87, 85, 79, 77, 75, 72, 66, 64, 63}, {98, 95, 91, 89, 87, 86, 84, 83, 81, 79, 77, 75, 72, 53}, {93, 86, 84, 83, 81, 80, 79, 76, 62, 57, 54, 48}, {96, 91, 89, 86, 83, 82, 79, 76, 74, 73, 65, 58, 54}, {94, 91, 90, 87, 85, 82, 80, 79, 75, 74, 72, 52}, {96, 88, 86, 80, 79, 78, 77, 76, 75, 74, 63, 54}, {95, 94, 93, 88, 86, 84, 82, 77, 73, 71, 49}, {98, 82, 78, 77, 72, 67, 57, 46}, {84, 82, 78, 75, 72, 63, 62, 46}, {96, 93, 84, 82, 80, 79, 78, 76, 75, 74, 72, 65}, {92, 89, 87, 85, 84, 76, 75, 74, 73, 71, 59}, {91, 79, 77, 75, 64, 62, 46}, {95, 93, 87, 79, 78, 75, 72, 71, 64, 63}, {92, 91, 84, 80, 78, 76, 73, 72, 66, 62}, {83, 82, 77, 75, 46}, {87, 86, 85, 81, 78, 77, 76, 73}, {93, 89, 75, 72, 62}, {84, 75, 63, 62}, {81, 80, 76, 74, 73}, {79, 77, 75, 74}, {77, 73, 72, 71}, {83, 75, 74, 72}, {92, 80, 73, 71}, {81, 79, 78, 72}, {86, 76, 62}, {78, 74, 62}, {85, 72, 71}, {83, 81, 74}, {85, 65}, {75, 71}, {78, 72}, {83, 72}, {90, 84}, {62}, {71}, {73}, {74}, {71}, {71}, {71}, {72}, {75}, {73}, {}, {}, {}, {}, {}, {}, {}, {}, {}, {}, {}, {}, {}, {}, {}, {}, {}, {}, {}, {}, {}, {}, {}, {}, {}, {}, {}, {}, {}, {}];
n_opt = 600;
dur = [2, 7, 18, 20, 21, 29, 4, 13, 14, 15, 17, 26, 2, 8, 11, 18, 22, 25, 12, 13, 21, 22, 24, 29, 4, 4, 5, 8, 20, 24, 3, 8, 10, 15, 20, 27, 2, 9, 15, 22, 26, 29, 2, 10, 12, 16, 21, 26, 1, 4, 7, 8, 15, 25, 1, 3, 18, 21, 26, 30, 4, 9, 11, 14, 16, 18, 3, 6, 10, 11, 13, 22, 5, 7, 17, 23, 27, 30, 2, 3, 4, 13, 14, 25, 1, 6, 10, 13, 14, 16, 3, 4, 5, 7, 23, 25, 5, 14, 20, 21, 22, 28, 7, 15, 23, 24, 25, 30, 7, 8, 17, 19, 24, 29, 2, 7, 9, 11, 12, 24, 3, 7, 10, 17, 20, 23, 5, 9, 14, 16, 27, 28, 5, 8, 9, 11, 28, 29, 1, 5, 13, 14, 27, 28, 4, 15, 20, 25, 28, 29, 5, 8, 16, 23, 25, 27, 6, 16, 17, 18, 19, 23, 4, 6, 7, 8, 14, 27, 8, 11, 14, 18, 19, 22, 6, 10, 11, 19, 26, 28, 5, 6, 14, 15, 17, 18, 4, 5, 6, 14, 20, 23, 9, 10, 14, 22, 27, 28, 6, 9, 10, 11, 21, 30, 3, 7, 8, 9, 17, 26, 1, 15, 24, 25, 28, 30, 4, 5, 8, 12, 13, 27, 1, 5, 10, 14, 21, 23, 6, 7, 21, 22, 26, 28, 3, 9, 14, 27, 28, 29, 10, 17, 22, 23, 25, 27, 1, 4, 5, 18, 21, 26, 8, 12, 18, 19, 20, 22, 5, 6, 8, 14, 15, 26, 2, 7, 10, 14, 23, 24, 6, 8, 12, 18, 19, 30, 10, 11, 13, 17, 25, 28, 1, 8, 20, 25, 27, 28, 10, 11, 21, 22, 24, 28, 2, 5, 12, 17, 19, 20, 5, 6, 16, 17, 23, 26, 2, 7, 8, 18, 21, 27, 3, 6, 8, 18, 26, 30, 2, 7, 10, 11, 18, 25, 4, 7, 13, 15, 17, 26, 1, 7, 17, 22, 26, 27, 1, 5, 11, 13, 14, 30, 2, 3, 12, 20, 22, 25, 1, 5, 13, 16, 19, 21, 6, 8, 9, 11, 12, 23, 4, 11, 16, 17, 18, 28, 8, 9, 10, 15, 19, 21, 3, 4, 5, 8, 9, 11, 8, 16, 22, 25, 28, 29, 6, 7, 9, 23, 24, 26, 2, 9, 10, 18, 22, 23, 6, 11, 12, 21, 25, 27, 12, 16, 18, 19, 25, 29, 14, 22, 24, 25, 29, 30, 3, 6, 11, 19, 20, 29, 5, 6, 13, 16, 17, 29, 3, 12, 17, 19, 20, 21, 6, 7, 15, 22, 23, 26, 5, 7, 14, 16, 19, 26, 4, 7, 8, 10, 15, 29, 4, 8, 11, 15, 16, 24, 6, 11, 13, 14, 19, 30, 8, 12, 24, 25, 26, 27, 5, 23, 25, 26, 27, 30, 3, 18, 19, 20, 27, 29, 4, 5, 6, 7, 8, 28, 1, 2, 16, 17, 22, 29, 11, 12, 13, 14, 15, 22, 2, 3, 10, 11, 25, 28, 1, 3, 6, 10, 20, 25, 7, 9, 18, 23, 24, 29, 2, 16, 18, 23, 29, 30, 3, 4, 6, 8, 13, 14, 11, 13, 16, 17, 21, 24, 10, 11, 15, 18, 19, 21, 3, 14, 16, 21, 23, 26, 4, 10, 26, 28, 29, 30, 4, 7, 9, 14, 16, 20, 3, 8, 14, 19, 22, 30, 5, 8, 12, 14, 15, 24, 10, 16, 18, 26, 29, 30, 5, 12, 13, 14, 17, 21, 2, 15, 22, 23, 24, 25, 6, 15, 19, 21, 23, 28, 10, 12, 13, 16, 23, 27];
rreq = [|5, 5, 5, 5, 5, 5, 4, 3, 3, 2, 2, 1, 5, 4, 3, 2, 2, 1, 4, 4, 4, 4, 4, 4, 2, 2, 2, 2, 2, 2, 4, 3, 3, 3, 3, 3, 2, 2, 2, 2, 2, 2, 5, 4, 4, 3, 3, 3, 4, 3, 3, 2, 1, 1, 2, 2, 2, 2, 2, 2, 4, 3, 3, 2, 2, 2, 1, 1, 1, 1, 1, 1, 4, 3, 3, 3, 2, 1, 2, 2, 2, 2, 2, 2, 2, 1, 1, 1, 1, 1, 1, 1, 1, 1, 1, 1, 2, 2, 2, 2, 2, 2, 2, 2, 2, 2, 2, 2, 5, 4, 4, 4, 4, 4, 4, 3, 3, 3, 2, 2, 5, 4, 4, 4, 4, 4, 2, 2, 2, 2, 2, 2, 4, 4, 4, 3, 2, 2, 3, 2, 2, 2, 1, 1, 5, 4, 3, 3, 2, 2, 3, 2, 2, 1, 1, 1, 5, 5, 5, 5, 5, 5, 5, 4, 4, 4, 3, 3, 5, 4, 4, 3, 3, 3, 4, 4, 4, 4, 4, 4, 3, 3, 3, 2, 2, 2, 5, 4, 4, 3, 3, 3, 2, 2, 2, 1, 1, 1, 4, 3, 3, 3, 3, 3, 4, 4, 4, 4, 4, 4, 4, 4, 4, 4, 3, 3, 4, 3, 2, 2, 2, 1, 2, 1, 1, 1, 1, 1, 3, 2, 2, 1, 1, 1, 5, 4, 3, 2, 2, 1, 3, 2, 2, 1, 1, 1, 3, 3, 3, 2, 2, 2, 5, 4, 4, 3, 3, 2, 4, 3, 2, 2, 2, 1, 3, 3, 3, 2, 1, 1, 4, 3, 3, 3, 2, 2, 5, 4, 4, 4, 4, 4, 5, 4, 4, 3, 3, 2, 1, 1, 1, 1, 1, 1, 1, 1, 1, 1, 1, 1, 3, 3, 3, 2, 2, 1, 4, 4, 4, 4, 4, 4, 3, 3, 2, 2, 1, 1, 4, 4, 4, 4, 4, 4, 2, 2, 2, 2, 2, 2, 3, 3, 3, 3, 3, 3, 3, 3, 3, 2, 2, 1, 2, 2, 2, 2, 2, 2, 4, 3, 2, 2, 2, 1, 3, 3, 3, 3, 3, 3, 2, 2, 2, 2, 2, 2, 5, 4, 3, 3, 2, 1, 4, 3, 3, 2, 1, 1, 3, 3, 3, 2, 2, 1, 3, 3, 3, 3, 3, 3, 1, 1, 1, 1, 1, 1, 2, 1, 1, 1, 1, 1, 3, 3, 2, 2, 1, 1, 3, 3, 3, 3, 2, 2, 5, 5, 5, 5, 5, 5, 3, 2, 2, 2, 1, 1, 5, 4, 4, 4, 4, 4, 1, 1, 1, 1, 1, 1, 5, 4, 4, 4, 3, 3, 3, 3, 2, 2, 1, 1, 2, 2, 2, 2, 2, 2, 1, 1, 1, 1, 1, 1, 2, 2, 2, 2, 2, 2, 3, 3, 3, 3, 2, 2, 3, 2, 2, 2, 2, 2, 5, 3, 3, 3, 2, 1, 3, 3, 3, 2, 2, 2, 4, 4, 4, 4, 4, 4, 4, 3, 3, 3, 2, 1, 5, 4, 3, 3, 2, 2, 2, 2, 2, 2, 2, 2, 2, 1, 1, 1, 1, 1, 1, 1, 1, 1, 1, 1, 4, 3, 3, 2, 2, 2, 2, 1, 1, 1, 1, 1, 5, 4, 3, 3, 3, 2, 5, 4, 3, 2, 1, 1, 4, 3, 3, 2, 1, 1, 4, 4, 4, 4, 4, 4, 2, 2, 2, 2, 2, 2, 2, 2, 2, 1, 1, 1, 3, 3, 3, 3, 2, 2, 3, 3, 2, 2, 2, 1, 5, 4, 4, 3, 3, 3, 3, 3, 3, 3, 3, 3
 |4, 4, 4, 4, 4, 4, 1, 1, 1, 1, 1, 1, 2, 2, 2, 2, 2, 2, 3, 3, 2, 2, 1, 1, 3, 3, 3, 3, 3, 3, 5, 3, 3, 2, 1, 1, 4, 4, 4, 4, 3, 3, 2, 1, 1, 1, 1, 1, 4, 3, 3, 2, 1, 1, 4, 3, 3, 3, 3, 3, 4, 4, 3, 3, 2, 2, 2, 2, 2, 2, 1, 1, 5, 4, 4, 3, 3, 3, 3, 2, 2, 1, 1, 1, 5, 4, 4, 3, 3, 3, 1, 1, 1, 1, 1, 1, 1, 1, 1, 1, 1, 1, 3, 3, 3, 3, 3, 3, 4, 4, 3, 3, 2, 1, 4, 4, 4, 4, 4, 4, 5, 4, 4, 4, 4, 4, 4, 4, 4, 4, 4, 4, 4, 4, 4, 4, 3, 3, 1, 1, 1, 1, 1, 1, 3, 2, 2, 2, 1, 1, 2, 2, 2, 1, 1, 1, 4, 3, 3, 3, 1, 1, 4, 3, 3, 3, 3, 3, 5, 4, 3, 3, 2, 2, 5, 5, 5, 5, 5, 5, 2, 2, 2, 2, 1, 1, 4, 4, 4, 4, 4, 4, 4, 4, 3, 3, 3, 2, 3, 2, 2, 2, 2, 2, 2, 1, 1, 1, 1, 1, 1, 1, 1, 1, 1, 1, 4, 4, 4, 4, 4, 4, 4, 4, 3, 3, 3, 2, 3, 3, 3, 3, 3, 3, 1, 1, 1, 1, 1, 1, 4, 4, 3, 3, 3, 2, 3, 2, 2, 1, 1, 1, 4, 4, 4, 4, 4, 4, 3, 2, 2, 2, 2, 2, 3, 3, 3, 2, 2, 2, 4, 3, 3, 2, 2, 2, 3, 3, 3, 3, 2, 2, 3, 3, 3, 2, 2, 2, 5, 4, 4, 3, 2, 2, 3, 3, 3, 2, 1, 1, 3, 2, 2, 2, 2, 2, 5, 3, 3, 2, 1, 1, 3, 3, 3, 3, 3, 3, 2, 2, 2, 2, 2, 2, 3, 3, 3, 3, 2, 2, 4, 3, 3, 3, 2, 2, 4, 4, 4, 4, 4, 4, 5, 4, 4, 4, 4, 4, 4, 3, 3, 3, 2, 2, 1, 1, 1, 1, 1, 1, 2, 2, 2, 2, 2, 2, 5, 4, 4, 3, 2, 2, 2, 1, 1, 1, 1, 1, 3, 3, 3, 2, 2, 2, 4, 4, 4, 4, 4, 4, 4, 3, 3, 2, 2, 2, 1, 1, 1, 1, 1, 1, 2, 2, 2, 1, 1, 1, 4, 4, 4, 4, 4, 4, 5, 4, 4, 3, 3, 3, 5, 5, 5, 5, 5, 5, 3, 3, 3, 3, 3, 3, 2, 2, 2, 2, 2, 2, 3, 3, 2, 2, 2, 1, 4, 4, 4, 3, 2, 2, 5, 4, 4, 3, 3, 2, 3, 3, 3, 3, 3, 3, 4, 4, 4, 4, 4, 4, 2, 2, 2, 2, 2, 2, 3, 3, 3, 3, 3, 3, 4, 4, 4, 3, 2, 2, 5, 4, 4, 3, 3, 2, 4, 4, 4, 3, 3, 2, 3, 3, 3, 3, 3, 3, 2, 2, 2, 1, 1, 1, 4, 4, 4, 3, 3, 2, 2, 2, 2, 2, 2, 2, 4, 4, 4, 3, 2, 2, 3, 3, 3, 3, 3, 3, 5, 5, 5, 5, 5, 5, 5, 4, 4, 4, 3, 3, 2, 2, 2, 2, 2, 2, 4, 3, 3, 2, 2, 1, 3, 2, 2, 1, 1, 1, 2, 2, 2, 2, 2, 2, 4, 3, 3, 3, 3, 3, 3, 3, 3, 3, 2, 2, 4, 3, 3, 2, 1, 1, 4, 3, 3, 2, 1, 1, 4, 3, 2, 2, 1, 1
 |4, 4, 3, 3, 2, 1, 5, 4, 4, 4, 4, 4, 5, 4, 4, 4, 4, 4, 4, 3, 3, 2, 1, 1, 3, 3, 3, 3, 3, 3, 5, 4, 4, 4, 4, 4, 3, 3, 2, 2, 1, 1, 4, 4, 4, 3, 3, 3, 5, 4, 4, 4, 3, 3, 2, 2, 2, 2, 2, 2, 2, 1, 1, 1, 1, 1, 4, 4, 3, 3, 2, 1, 4, 3, 3, 3, 2, 2, 2, 2, 2, 2, 2, 2, 3, 3, 3, 3, 3, 3, 4, 3, 2, 2, 2, 1, 5, 5, 5, 5, 5, 5, 5, 4, 4, 4, 4, 4, 5, 4, 3, 3, 2, 2, 4, 4, 3, 3, 2, 2, 1, 1, 1, 1, 1, 1, 4, 3, 2, 2, 1, 1, 3, 2, 2, 2, 2, 2, 5, 4, 3, 3, 2, 1, 2, 2, 2, 2, 2, 2, 2, 2, 2, 2, 2, 2, 4, 4, 4, 4, 4, 4, 4, 3, 3, 2, 2, 1, 4, 3, 2, 2, 2, 1, 4, 3, 3, 3, 3, 3, 5, 4, 4, 4, 4, 4, 3, 2, 2, 2, 1, 1, 4, 4, 4, 4, 4, 4, 4, 4, 4, 4, 4, 4, 2, 2, 2, 2, 2, 2, 5, 5, 5, 5, 5, 5, 3, 2, 2, 2, 2, 2, 4, 4, 3, 3, 3, 2, 4, 3, 3, 3, 3, 3, 4, 3, 3, 3, 3, 3, 5, 3, 3, 2, 2, 1, 4, 3, 3, 2, 2, 2, 4, 4, 3, 3, 2, 1, 2, 2, 2, 2, 2, 2, 4, 4, 4, 3, 2, 2, 3, 2, 2, 2, 2, 2, 3, 2, 2, 1, 1, 1, 4, 4, 4, 4, 4, 4, 4, 3, 3, 3, 2, 2, 3, 2, 2, 1, 1, 1, 4, 3, 3, 3, 3, 3, 5, 4, 4, 4, 4, 4, 2, 1, 1, 1, 1, 1, 4, 4, 4, 3, 2, 2, 5, 4, 4, 3, 3, 2, 3, 3, 3, 3, 3, 3, 4, 3, 2, 2, 1, 1, 4, 4, 4, 4, 4, 4, 5, 4, 3, 3, 2, 2, 1, 1, 1, 1, 1, 1, 3, 3, 2, 2, 1, 1, 2, 1, 1, 1, 1, 1, 4, 4, 3, 3, 3, 2, 5, 4, 3, 3, 2, 2, 1, 1, 1, 1, 1, 1, 2, 2, 2, 1, 1, 1, 3, 3, 3, 3, 2, 2, 2, 1, 1, 1, 1, 1, 5, 4, 4, 4, 4, 4, 4, 3, 3, 2, 2, 2, 5, 4, 3, 2, 1, 1, 5, 5, 5, 5, 5, 5, 5, 3, 3, 2, 1, 1, 5, 4, 4, 4, 3, 3, 4, 3, 3, 2, 2, 2, 2, 1, 1, 1, 1, 1, 4, 3, 3, 3, 3, 3, 5, 3, 3, 3, 2, 1, 3, 3, 3, 2, 2, 2, 4, 4, 4, 4, 4, 4, 3, 3, 3, 3, 3, 3, 4, 4, 4, 4, 3, 3, 3, 2, 2, 2, 2, 2, 2, 2, 2, 2, 2, 2, 2, 2, 2, 2, 2, 2, 4, 3, 3, 2, 2, 2, 4, 3, 2, 2, 1, 1, 4, 4, 4, 3, 2, 2, 3, 2, 2, 2, 2, 2, 3, 3, 3, 3, 3, 3, 5, 4, 4, 3, 3, 2, 5, 4, 4, 3, 2, 2, 5, 4, 4, 4, 3, 3, 5, 4, 4, 4, 4, 4, 5, 4, 4, 3, 3, 3, 4, 4, 3, 3, 1, 1, 3, 3, 3, 3, 3, 3, 5, 4, 3, 3, 1, 1, 1, 1, 1, 1, 1, 1, 2, 2, 2, 2, 2, 2
 |3, 2, 2, 2, 1, 1, 3, 3, 3, 3, 3, 3, 4, 3, 3, 3, 2, 2, 5, 5, 5, 5, 5, 5, 3, 3, 3, 3, 2, 2, 3, 2, 2, 2, 1, 1, 5, 5, 5, 5, 5, 5, 3, 2, 2, 2, 2, 2, 4, 4, 4, 4, 4, 4, 3, 2, 2, 1, 1, 1, 5, 5, 5, 5, 5, 5, 4, 4, 4, 4, 4, 4, 4, 4, 4, 3, 3, 3, 2, 1, 1, 1, 1, 1, 4, 3, 3, 3, 3, 3, 3, 3, 3, 3, 3, 3, 1, 1, 1, 1, 1, 1, 2, 2, 2, 2, 2, 2, 4, 3, 3, 2, 1, 1, 4, 3, 3, 3, 3, 3, 3, 3, 3, 2, 2, 1, 5, 3, 3, 2, 2, 1, 3, 3, 3, 2, 2, 1, 4, 4, 4, 4, 4, 4, 1, 1, 1, 1, 1, 1, 4, 3, 3, 3, 2, 2, 4, 3, 3, 3, 2, 1, 4, 3, 3, 3, 2, 1, 2, 2, 2, 2, 2, 2, 5, 4, 4, 3, 3, 3, 3, 3, 3, 3, 2, 2, 4, 3, 3, 3, 2, 2, 4, 3, 3, 3, 3, 3, 2, 1, 1, 1, 1, 1, 4, 3, 3, 3, 3, 3, 4, 3, 3, 3, 2, 2, 4, 4, 4, 4, 4, 4, 3, 3, 3, 3, 2, 2, 3, 3, 3, 3, 3, 3, 5, 4, 3, 3, 2, 2, 3, 2, 2, 2, 1, 1, 3, 2, 2, 2, 2, 2, 2, 2, 2, 1, 1, 1, 2, 1, 1, 1, 1, 1, 3, 2, 2, 2, 2, 2, 4, 3, 3, 3, 2, 2, 4, 4, 4, 4, 4, 4, 1, 1, 1, 1, 1, 1, 3, 3, 3, 3, 3, 3, 4, 3, 3, 2, 1, 1, 5, 5, 5, 5, 5, 5, 1, 1, 1, 1, 1, 1, 5, 5, 5, 5, 5, 5, 4, 4, 3, 3, 2, 2, 5, 4, 4, 3, 3, 2, 2, 2, 2, 2, 2, 2, 2, 1, 1, 1, 1, 1, 1, 1, 1, 1, 1, 1, 4, 3, 3, 3, 3, 3, 2, 2, 2, 2, 2, 2, 5, 4, 4, 4, 3, 3, 4, 4, 4, 4, 4, 4, 1, 1, 1, 1, 1, 1, 4, 4, 3, 3, 2, 2, 3, 2, 2, 2, 1, 1, 4, 4, 3, 3, 1, 1, 2, 1, 1, 1, 1, 1, 1, 1, 1, 1, 1, 1, 4, 3, 3, 2, 2, 1, 2, 2, 2, 2, 1, 1, 5, 5, 5, 5, 5, 5, 4, 3, 2, 2, 2, 1, 3, 3, 3, 3, 2, 2, 5, 4, 4, 4, 3, 3, 3, 3, 3, 2, 2, 1, 4, 3, 3, 2, 1, 1, 3, 2, 2, 2, 2, 2, 4, 4, 4, 4, 4, 4, 3, 3, 3, 3, 3, 3, 4, 4, 4, 4, 4, 4, 4, 3, 3, 2, 2, 2, 4, 4, 3, 3, 3, 2, 4, 4, 3, 3, 1, 1, 4, 4, 4, 4, 4, 4, 5, 4, 3, 3, 2, 2, 3, 3, 3, 2, 2, 1, 4, 3, 3, 2, 2, 1, 3, 3, 3, 3, 3, 3, 3, 3, 3, 3, 2, 2, 5, 5, 5, 5, 5, 5, 5, 4, 4, 4, 4, 4, 5, 4, 3, 2, 1, 1, 3, 2, 2, 2, 2, 2, 1, 1, 1, 1, 1, 1, 5, 4, 3, 3, 3, 2, 2, 2, 2, 1, 1, 1, 3, 2, 2, 1, 1, 1, 2, 1, 1, 1, 1, 1, 4, 4, 3, 3, 2, 1, 4, 4, 3, 3, 3, 2
 |10, 9, 8, 7, 7, 6, 21, 21, 14, 13, 11, 7, 9, 7, 7, 5, 5, 4, 17, 14, 11, 10, 5, 2, 8, 7, 7, 6, 4, 4, 22, 21, 19, 18, 17, 16, 15, 14, 12, 12, 11, 9, 27, 25, 24, 22, 20, 19, 29, 26, 26, 22, 22, 19, 18, 16, 13, 10, 9, 4, 12, 10, 8, 7, 6, 3, 19, 19, 17, 15, 15, 13, 9, 8, 7, 5, 2, 1, 12, 10, 9, 6, 3, 3, 18, 17, 16, 15, 14, 13, 10, 9, 6, 5, 4, 2, 9, 8, 6, 6, 5, 3, 27, 22, 18, 13, 10, 7, 18, 18, 18, 18, 18, 18, 20, 17, 16, 11, 7, 6, 12, 10, 8, 7, 4, 3, 16, 15, 12, 7, 6, 3, 21, 19, 16, 14, 10, 8, 5, 5, 5, 5, 5, 5, 25, 23, 21, 21, 19, 16, 27, 25, 22, 21, 16, 14, 18, 14, 11, 11, 8, 6, 2, 2, 2, 2, 2, 2, 24, 24, 22, 21, 20, 20, 18, 17, 16, 16, 15, 14, 24, 24, 21, 19, 17, 16, 16, 15, 13, 12, 10, 8, 25, 25, 22, 21, 19, 17, 23, 23, 22, 21, 20, 19, 26, 25, 23, 21, 21, 20, 25, 21, 21, 18, 15, 14, 23, 21, 18, 16, 13, 10, 26, 26, 25, 23, 22, 22, 9, 8, 7, 6, 5, 3, 6, 5, 4, 4, 3, 3, 27, 26, 25, 24, 22, 22, 29, 22, 21, 16, 12, 7, 28, 28, 28, 27, 27, 26, 18, 17, 15, 15, 13, 12, 12, 12, 11, 10, 9, 8, 27, 27, 25, 24, 23, 23, 14, 12, 8, 6, 4, 3, 27, 26, 24, 24, 22, 22, 23, 18, 17, 13, 9, 5, 21, 20, 20, 20, 20, 20, 17, 17, 15, 15, 13, 13, 26, 23, 23, 20, 20, 18, 23, 18, 15, 14, 8, 6, 23, 21, 17, 13, 7, 3, 23, 21, 20, 18, 16, 15, 20, 19, 18, 18, 17, 16, 23, 23, 19, 19, 15, 13, 16, 13, 13, 10, 9, 7, 6, 6, 6, 6, 6, 6, 26, 22, 22, 18, 18, 16, 25, 23, 19, 13, 8, 5, 28, 23, 18, 15, 8, 4, 20, 18, 16, 15, 12, 10, 23, 17, 16, 11, 8, 4, 26, 22, 19, 11, 6, 3, 18, 17, 13, 8, 8, 4, 18, 15, 14, 10, 6, 5, 30, 26, 24, 23, 20, 16, 15, 15, 11, 11, 8, 5, 10, 9, 8, 5, 5, 3, 21, 20, 19, 19, 17, 17, 24, 24, 23, 23, 23, 22, 16, 14, 14, 14, 12, 12, 13, 11, 10, 10, 8, 8, 25, 23, 21, 18, 16, 14, 26, 24, 23, 22, 22, 20, 27, 26, 26, 26, 25, 25, 26, 26, 26, 26, 26, 26, 27, 22, 19, 14, 12, 10, 23, 20, 19, 16, 14, 13, 21, 17, 14, 11, 5, 5, 16, 16, 16, 16, 16, 16, 16, 16, 16, 16, 15, 15, 11, 10, 10, 10, 10, 10, 20, 20, 19, 18, 16, 16, 27, 23, 19, 12, 8, 7, 20, 17, 16, 12, 11, 8, 12, 11, 11, 10, 10, 10, 17, 17, 16, 14, 13, 13, 17, 17, 13, 11, 7, 4, 17, 16, 15, 15, 13, 13, 21, 17, 17, 14, 13, 11, 5, 5, 3, 2, 1, 1, 12, 12, 12, 12, 12, 12, 21, 19, 17, 16, 14, 12, 13, 10, 7, 6, 4, 2, 8, 7, 5, 4, 3, 3, 19, 19, 17, 15, 14, 12, 6, 6, 6, 5, 5, 4, 12, 12, 12, 12, 12, 12
 |28, 25, 25, 22, 21, 19, 12, 12, 12, 12, 12, 12, 5, 4, 4, 4, 3, 3, 20, 20, 19, 19, 18, 17, 20, 21, 20, 19, 19, 18, 3, 3, 3, 3, 2, 2, 25, 19, 17, 13, 10, 10, 5, 5, 5, 5, 5, 5, 18, 16, 15, 14, 9, 9, 22, 22, 19, 18, 14, 13, 23, 22, 21, 21, 20, 20, 2, 1, 2, 2, 2, 2, 18, 17, 16, 14, 13, 13, 28, 25, 19, 16, 13, 9, 26, 25, 25, 23, 22, 22, 22, 22, 22, 22, 22, 22, 13, 13, 14, 13, 13, 13, 5, 4, 4, 4, 4, 4, 24, 22, 21, 19, 16, 13, 17, 16, 15, 12, 12, 9, 20, 19, 19, 19, 19, 19, 26, 24, 22, 16, 11, 8, 23, 22, 22, 21, 21, 21, 23, 22, 21, 20, 20, 18, 27, 24, 23, 21, 18, 17, 12, 8, 8, 5, 4, 3, 24, 23, 23, 22, 23, 23, 23, 20, 19, 12, 8, 7, 25, 25, 24, 23, 23, 22, 27, 24, 22, 19, 15, 11, 20, 19, 18, 18, 16, 15, 6, 5, 5, 5, 5, 5, 6, 5, 5, 5, 5, 5, 26, 24, 24, 24, 23, 22, 25, 21, 18, 17, 14, 12, 10, 9, 8, 6, 3, 1, 20, 18, 13, 12, 8, 7, 3, 3, 3, 3, 2, 2, 18, 18, 18, 18, 17, 17, 13, 11, 10, 10, 9, 8, 23, 22, 22, 21, 21, 20, 23, 23, 17, 13, 8, 3, 16, 14, 13, 12, 11, 10, 9, 9, 8, 7, 8, 7, 18, 17, 14, 12, 9, 5, 12, 12, 12, 12, 12, 11, 12, 9, 8, 6, 6, 4, 17, 12, 9, 9, 6, 3, 18, 17, 17, 17, 16, 15, 25, 24, 23, 19, 17, 13, 24, 20, 17, 13, 12, 9, 19, 16, 15, 15, 13, 12, 23, 19, 17, 14, 9, 6, 8, 7, 7, 7, 7, 7, 7, 7, 7, 7, 7, 7, 29, 27, 26, 25, 24, 24, 27, 24, 22, 21, 18, 14, 14, 11, 8, 7, 4, 3, 20, 17, 15, 14, 12, 11, 16, 17, 16, 16, 15, 16, 19, 19, 17, 14, 13, 12, 12, 10, 9, 8, 7, 7, 8, 8, 7, 5, 4, 4, 13, 10, 10, 7, 6, 4, 20, 18, 16, 14, 12, 9, 26, 23, 19, 17, 17, 13, 25, 22, 19, 16, 10, 8, 11, 11, 8, 7, 7, 4, 7, 5, 4, 4, 2, 2, 21, 21, 20, 19, 17, 17, 13, 12, 12, 11, 9, 8, 19, 18, 18, 17, 16, 18, 21, 21, 20, 18, 16, 14, 8, 6, 6, 4, 2, 2, 12, 11, 9, 9, 7, 7, 18, 18, 18, 18, 18, 18, 18, 18, 14, 13, 9, 6, 14, 13, 12, 11, 12, 11, 27, 23, 17, 15, 12, 5, 18, 17, 17, 17, 16, 15, 25, 25, 25, 24, 24, 24, 24, 22, 20, 18, 13, 13, 25, 24, 22, 21, 19, 17, 20, 18, 17, 16, 16, 16, 16, 14, 12, 11, 7, 6, 11, 10, 10, 8, 7, 7, 18, 18, 18, 17, 17, 16, 28, 27, 26, 26, 26, 25, 25, 24, 21, 18, 16, 15, 13, 13, 12, 12, 12, 11, 21, 20, 20, 19, 18, 18, 7, 6, 6, 6, 6, 6, 26, 19, 19, 13, 7, 5, 9, 6, 5, 3, 2, 1, 27, 26, 26, 23, 21, 21, 30, 29, 29, 29, 29, 29, 23, 23, 19, 15, 8, 6, 20, 19, 17, 13, 13, 11, 26, 25, 23, 20, 18, 13, 28, 25, 24, 23, 19, 18|];